NAME 
ROWS
 N  OBJ
 L  R0      
 L  R1      
 E  R2      
 E  R3      
 E  R4      
 E  R5      
 E  R6      
COLUMNS
    MARKER    'MARKER'                 'INTORG'
    I0(5)     OBJ       41
    I0(5)     R0        62
    I0(5)     R1        -187
    I0(5)     R3        18
    I0(5)     R4        2
    I0(5)     R6        1
    I1(5)     OBJ       86
    I1(5)     R0        -184
    I1(5)     R1        96
    I1(5)     R2        2
    I1(5)     R3        13
    I1(5)     R6        1
    I2(3)     OBJ       -16
    I2(3)     R0        84
    I2(3)     R1        -112
    I2(3)     R6        1
    MARKER    'MARKER'                 'INTEND'
    C3(5)     OBJ       2
    C3(5)     R0        9
    C3(5)     R1        1
    C3(5)     R2        16
    C3(5)     R3        17
    C3(5)     R5        5
    C4(4)     OBJ       -1
    C4(4)     R0        -10
    C4(4)     R1        8
    C4(4)     R3        2
    C4(4)     R4        4
    C5(1)     R2        1
    C6(1)     R3        1
    C7(1)     R4        1
    C8(1)     R5        1
    C9(1)     R6        1
RHS
    RHS1      R0        -61
    RHS1      R1        4
    RHS1      R2        84
    RHS1      R3        67
    RHS1      R4        58
    RHS1      R5        51
    RHS1      R6        1
BOUNDS
 UP BND1      I0(5)     2
 UP BND1      I1(5)     2
 UP BND1      I2(3)     2
ENDATA
